8
0 33 33 33 33 33 33 33
33 0 33 33 33 33 33 33
33 33 0 33 33 33 33 33
33 33 33 0 33 33 33 33
33 33 33 33 0 33 33 33
33 33 33 33 33 0 33 33
33 33 33 33 33 33 0 33
33 33 33 33 33 33 33 0
264
0 1 2 3 4 5 6 7 0 
